unsat
((set-logic NIA)
(declare-fun c!3 () Int)
(declare-fun k!2 () Int)
(declare-fun n!0 () Int)
(declare-fun m!1 () Int)
(proof
(let (($x2788 (<= c!3 4)))
 (let ((?x505 (* (- 1) k!2)))
 (let ((?x593 (* (- 3) c!3)))
 (let ((?x324 (* n!0 k!2)))
 (let ((?x477 (* 2 n!0)))
 (let ((?x337 (+ ?x477 ?x324 ?x593 ?x505)))
 (let (($x362 (<= ?x337 0)))
 (let (($x813 (= ?x337 0)))
 (let ((?x770 (* (- 1) m!1)))
 (let ((?x771 (+ (* 6 n!0) ?x770)))
 (let (($x772 (= ?x771 (- 6))))
 (let (($x853 (not $x772)))
 (let (($x779 (not (= (+ (* 9 n!0) (* 3 (* n!0 n!0)) ?x505 ?x770) (- 6)))))
 (let ((?x461 (* (- 5) m!1)))
 (let ((?x439 (* (- 32) k!2)))
 (let ((?x449 (* (- 27) c!3)))
 (let ((?x456 (* m!1 m!1)))
 (let ((?x399 (* k!2 k!2)))
 (let ((?x338 (* n!0 c!3)))
 (let ((?x136 (* (- 9) ?x338)))
 (let ((?x491 (* (- 9) ?x324)))
 (let ((?x467 (* 9 n!0)))
 (let ((?x133 (* k!2 m!1)))
 (let ((?x511 (* 2 ?x133)))
 (let ((?x419 (* 2 m!1)))
 (let ((?x784 (* (- 3) (* k!2 k!2 m!1 m!1))))
 (let ((?x847 (* (- 36) (* c!3 c!3 m!1))))
 (let ((?x423 (* 11 k!2)))
 (let ((?x433 (* 9 c!3)))
 (let ((?x870 (* (- 6) (* c!3 k!2 m!1 m!1))))
 (let ((?x777 (* (- 3) (* c!3 c!3 m!1 m!1))))
 (let ((?x372 (* (- 216) (* c!3 k!2))))
 (let ((?x781 (+ c!3 k!2)))
 (let ((?x819 (+ k!2 m!1)))
 (let ((?x872 (+ 1 n!0)))
 (let ((?x315 (* 9 (* ?x872 ?x872 ?x819 ?x819 ?x781 ?x781))))
 (let ((?x424 (* (- 36) (* k!2 k!2 m!1))))
 (let ((?x420 (* (- 108) ?x399)))
 (let ((?x371 (* c!3 k!2 m!1)))
 (let ((?x448 (* (- 72) ?x371)))
 (let ((?x817 (* (- 108) (* c!3 c!3))))
 (let ((?x580 (+ ?x817 ?x448 ?x420 ?x424 ?x315 ?x372 ?x777 ?x870 ?x433 ?x423 ?x847 ?x784 ?x419)))
 (let (($x575 (= (* ?x580 (+ 13 ?x511 ?x467 ?x491 ?x136 ?x399 ?x456 ?x449 ?x439 ?x461)) 0)))
 (let (($x554 (or (not (= (+ ?x477 ?x324 ?x593 (* (- 3) k!2) (* n!0 m!1)) (- 2))) (not (= (+ ?x511 ?x467 ?x491 ?x136 ?x399 ?x456 ?x449 ?x439 ?x461) (- 13))) (not $x575) $x779 $x853)))
 (let ((?x411 (* n!0 n!0)))
 (let ((?x495 (* 3 ?x411)))
 (let ((?x493 (* 3 n!0)))
 (let ((?x496 (+ ?x493 ?x495 ?x505)))
 (let (($x499 (= ?x496 0)))
 (let ((?x158 (* (- 5) k!2)))
 (let ((?x161 (+ ?x467 ?x136 ?x399 (* (- 18) c!3) ?x158)))
 (let (($x310 (= ?x161 (- 4))))
 (let (($x759 (and $x772 $x310 $x813 $x499 $x554)))
 (let ((?x466 (+ 13 ?x449 ?x439 ?x461 ?x467 ?x399 (* (- 9) (* k!2 n!0)) (* (- 9) (* c!3 n!0)) ?x511 ?x456)))
 (let ((?x512 (+ ?x433 ?x423 ?x419 ?x420 ?x777 ?x870 ?x784 ?x315 ?x817 ?x372 ?x847 ?x448 ?x424)))
 (let ((?x429 (* k!2 n!0)))
 (let ((?x248 (* (- 1) ?x429)))
 (let ((?x768 (* (- 2) n!0)))
 (let ((?x375 (* 3 c!3)))
 (let (($x205 (= (+ ?x375 (* 3 k!2) ?x768 ?x248 (* (- 1) (* m!1 n!0))) 2)))
 (let ((?x899 (* c!3 n!0)))
 (let ((?x545 (* 9 ?x899)))
 (let ((?x331 (* (- 1) ?x399)))
 (let ((?x400 (* (- 9) n!0)))
 (let ((?x785 (+ (* 27 c!3) (* 32 k!2) (* 5 m!1) ?x400 ?x331 (* 9 ?x429) ?x545 (* (- 2) ?x133) (* (- 1) ?x456))))
 (let (($x469 (or (not (= (+ m!1 (* (- 6) n!0)) 6)) (not (= ?x785 13)) (not $x205) (not (= (+ k!2 m!1 ?x400 (* (- 3) ?x411)) 6)) (not (= (* ?x512 ?x466) 0)))))
 (let (($x886 (= (+ m!1 (* (- 6) n!0)) 6)))
 (let (($x470 (and $x886 (= (+ (* 18 c!3) (* 5 k!2) ?x400 ?x331 ?x545) 4) (= (+ ?x375 k!2 ?x768 ?x248) 0) (= (+ k!2 (* (- 3) n!0) (* (- 3) ?x411)) 0) $x469)))
 (let (($x346 (exists ((c Int) (k Int) (m Int) (n Int) )(! (let ((?x488 (* m m)))
 (let ((?x46 (* k k)))
 (let ((?x45 (* 9 n)))
 (let ((?x454 (* (- 5) m)))
 (let ((?x509 (+ 13 (* (- 27) c) (* (- 32) k) ?x454 ?x45 ?x46 (* (- 9) (* k n)) (* (- 9) (* c n)) (* 2 (* k m)) ?x488)))
 (let ((?x906 (* (- 36) (* k k m))))
 (let ((?x905 (* (- 72) (* c k m))))
 (let ((?x903 (* (- 36) (* c c m))))
 (let ((?x901 (* (- 216) (* c k))))
 (let ((?x831 (* (- 108) (* c c))))
 (let ((?x71 (+ c k)))
 (let ((?x74 (+ k m)))
 (let ((?x393 (+ 1 n)))
 (let ((?x835 (* 9 (* ?x393 ?x393 ?x74 ?x74 ?x71 ?x71))))
 (let ((?x894 (* (- 3) (* k k m m))))
 (let ((?x907 (* (- 6) (* c k m m))))
 (let ((?x879 (* (- 3) (* c c m m))))
 (let ((?x846 (* (- 108) ?x46)))
 (let ((?x744 (* 2 m)))
 (let ((?x752 (* 11 k)))
 (let ((?x738 (* 9 c)))
 (let ((?x417 (+ ?x738 ?x752 ?x744 ?x846 ?x879 ?x907 ?x894 ?x835 ?x831 ?x901 ?x903 ?x905 ?x906)))
 (let (($x825 (not (= (+ k m (* (- 9) n) (* (- 3) (* n n))) 6))))
 (let ((?x52 (* k n)))
 (let ((?x265 (* (- 1) ?x52)))
 (let ((?x264 (* (- 2) n)))
 (let ((?x262 (* 3 c)))
 (let (($x608 (= (+ ?x262 (* 3 k) ?x264 ?x265 (* (- 1) (* m n))) 2)))
 (let (($x616 (not $x608)))
 (let ((?x160 (* c n)))
 (let ((?x162 (* 9 ?x160)))
 (let ((?x225 (* (- 1) ?x46)))
 (let ((?x224 (* (- 9) n)))
 (let ((?x437 (* 5 m)))
 (let ((?x525 (+ (* 27 c) (* 32 k) ?x437 ?x224 ?x225 (* 9 ?x52) ?x162 (* (- 2) (* k m)) (* (- 1) ?x488))))
 (let (($x529 (not (= ?x525 13))))
 (let (($x145 (= (+ m (* (- 6) n)) 6)))
 (let (($x363 (not $x145)))
 (let (($x303 (= (+ k (* (- 3) n) (* (- 3) (* n n))) 0)))
 (let (($x267 (= (+ ?x262 k ?x264 ?x265) 0)))
 (let (($x222 (= (+ (* 18 c) (* 5 k) ?x224 ?x225 ?x162) 4)))
 (and $x145 $x222 $x267 $x303 (or $x363 $x529 $x616 $x825 (not (= (* ?x417 ?x509) 0))))))))))))))))))))))))))))))))))))))))))))) :qid k!38))
 ))
 (let (($x891 (exists ((c Int) (k Int) (m Int) (n Int) )(! (let ((?x264 (* (- 2) n)))
 (let ((?x262 (* 3 c)))
 (let ((?x914 (+ ?x262 (* 4 k) (* (- 1) (* (+ 1 n) (+ k m))) m ?x264)))
 (let ((?x224 (* (- 9) n)))
 (let ((?x437 (* 5 m)))
 (let ((?x37 (* 18 c)))
 (let ((?x854 (+ ?x37 (* 23 k) (* 9 (* (+ 1 n) (+ c k))) ?x437 ?x224 (* (- 1) (* (+ k m) (+ k m))))))
 (let ((?x74 (+ k m)))
 (let ((?x80 (* ?x74 ?x74)))
 (let ((?x45 (* 9 n)))
 (let ((?x454 (* (- 5) m)))
 (let ((?x71 (+ c k)))
 (let ((?x393 (+ 1 n)))
 (let ((?x795 (* ?x393 ?x71)))
 (let ((?x370 (* (- 9) ?x795)))
 (let ((?x465 (* (- 23) k)))
 (let ((?x123 (* (- 18) c)))
 (let ((?x744 (* 2 m)))
 (let ((?x752 (* 11 k)))
 (let ((?x738 (* 9 c)))
 (let ((?x835 (* 9 (* ?x393 ?x393 ?x74 ?x74 ?x71 ?x71))))
 (let ((?x804 (+ ?x835 ?x738 ?x752 ?x744 (* (- 3) (* (+ 6 m) (+ 6 m) ?x71 ?x71)))))
 (let (($x503 (not (= (* ?x804 (+ 13 ?x123 ?x465 ?x370 ?x454 ?x45 ?x80)) 0))))
 (let (($x145 (= (+ m (* (- 6) n)) 6)))
 (let (($x363 (not $x145)))
 (let ((?x61 (* 3 n)))
 (let ((?x859 (* (- 1) m)))
 (let ((?x888 (* (- 1) k)))
 (let (($x343 (not (= (+ (* 3 (* ?x393 ?x393)) ?x888 ?x859 ?x61) (- 3)))))
 (let (($x413 (= (+ (* 3 (* n n)) ?x888 ?x61) 0)))
 (let ((?x46 (* k k)))
 (let ((?x225 (* (- 1) ?x46)))
 (let ((?x41 (* 5 k)))
 (and $x145 (= (+ ?x37 (* 9 (* n c)) ?x41 ?x224 ?x225) 4) (= (+ ?x262 (* (- 1) (* n k)) k ?x264) 0) $x413 (or $x343 $x363 $x503 (not (= ?x854 13)) (not (= ?x914 2))))))))))))))))))))))))))))))))))))) :qid k!38))
 ))
 (let ((?x504 (lambda ((c Int) (k Int) (m Int) (n Int) )(let ((?x488 (* m m)))
 (let ((?x46 (* k k)))
 (let ((?x45 (* 9 n)))
 (let ((?x454 (* (- 5) m)))
 (let ((?x509 (+ 13 (* (- 27) c) (* (- 32) k) ?x454 ?x45 ?x46 (* (- 9) (* k n)) (* (- 9) (* c n)) (* 2 (* k m)) ?x488)))
 (let ((?x906 (* (- 36) (* k k m))))
 (let ((?x905 (* (- 72) (* c k m))))
 (let ((?x903 (* (- 36) (* c c m))))
 (let ((?x901 (* (- 216) (* c k))))
 (let ((?x831 (* (- 108) (* c c))))
 (let ((?x71 (+ c k)))
 (let ((?x74 (+ k m)))
 (let ((?x393 (+ 1 n)))
 (let ((?x835 (* 9 (* ?x393 ?x393 ?x74 ?x74 ?x71 ?x71))))
 (let ((?x894 (* (- 3) (* k k m m))))
 (let ((?x907 (* (- 6) (* c k m m))))
 (let ((?x879 (* (- 3) (* c c m m))))
 (let ((?x846 (* (- 108) ?x46)))
 (let ((?x744 (* 2 m)))
 (let ((?x752 (* 11 k)))
 (let ((?x738 (* 9 c)))
 (let ((?x417 (+ ?x738 ?x752 ?x744 ?x846 ?x879 ?x907 ?x894 ?x835 ?x831 ?x901 ?x903 ?x905 ?x906)))
 (let (($x825 (not (= (+ k m (* (- 9) n) (* (- 3) (* n n))) 6))))
 (let ((?x52 (* k n)))
 (let ((?x265 (* (- 1) ?x52)))
 (let ((?x264 (* (- 2) n)))
 (let ((?x262 (* 3 c)))
 (let (($x608 (= (+ ?x262 (* 3 k) ?x264 ?x265 (* (- 1) (* m n))) 2)))
 (let (($x616 (not $x608)))
 (let ((?x160 (* c n)))
 (let ((?x162 (* 9 ?x160)))
 (let ((?x225 (* (- 1) ?x46)))
 (let ((?x224 (* (- 9) n)))
 (let ((?x437 (* 5 m)))
 (let ((?x525 (+ (* 27 c) (* 32 k) ?x437 ?x224 ?x225 (* 9 ?x52) ?x162 (* (- 2) (* k m)) (* (- 1) ?x488))))
 (let (($x529 (not (= ?x525 13))))
 (let (($x145 (= (+ m (* (- 6) n)) 6)))
 (let (($x363 (not $x145)))
 (let (($x303 (= (+ k (* (- 3) n) (* (- 3) (* n n))) 0)))
 (let (($x267 (= (+ ?x262 k ?x264 ?x265) 0)))
 (let (($x222 (= (+ (* 18 c) (* 5 k) ?x224 ?x225 ?x162) 4)))
 (let (($x132 (and $x145 $x222 $x267 $x303 (or $x363 $x529 $x616 $x825 (not (= (* ?x417 ?x509) 0))))))
 (let (($x360 (= (+ ?x262 (* 4 k) (* (- 1) (* ?x393 ?x74)) m ?x264) 2)))
 (let ((?x37 (* 18 c)))
 (let ((?x854 (+ ?x37 (* 23 k) (* 9 (* ?x393 ?x71)) ?x437 ?x224 (* (- 1) (* ?x74 ?x74)))))
 (let ((?x80 (* ?x74 ?x74)))
 (let ((?x795 (* ?x393 ?x71)))
 (let ((?x370 (* (- 9) ?x795)))
 (let ((?x465 (* (- 23) k)))
 (let ((?x123 (* (- 18) c)))
 (let ((?x804 (+ ?x835 ?x738 ?x752 ?x744 (* (- 3) (* (+ 6 m) (+ 6 m) ?x71 ?x71)))))
 (let (($x503 (not (= (* ?x804 (+ 13 ?x123 ?x465 ?x370 ?x454 ?x45 ?x80)) 0))))
 (let ((?x61 (* 3 n)))
 (let ((?x859 (* (- 1) m)))
 (let ((?x888 (* (- 1) k)))
 (let (($x343 (not (= (+ (* 3 (* ?x393 ?x393)) ?x888 ?x859 ?x61) (- 3)))))
 (let (($x413 (= (+ (* 3 (* n n)) ?x888 ?x61) 0)))
 (let (($x355 (= (+ ?x37 (* 9 (* n c)) (* 5 k) ?x224 ?x225) 4)))
 (let (($x544 (and $x145 $x355 (= (+ ?x262 (* (- 1) (* n k)) k ?x264) 0) $x413 (or $x343 $x363 $x503 (not (= ?x854 13)) (not $x360)))))
 (rewrite (= $x544 $x132))))))))))))))))))))))))))))))))))))))))))))))))))))))))))))))
 ))
 (let (($x780 (exists ((c Int) (k Int) (m Int) (n Int) )(! (let ((?x74 (+ k m)))
 (let ((?x80 (* ?x74 ?x74)))
 (let ((?x45 (* 9 n)))
 (let ((?x454 (* (- 5) m)))
 (let ((?x71 (+ c k)))
 (let ((?x393 (+ 1 n)))
 (let ((?x795 (* ?x393 ?x71)))
 (let ((?x370 (* (- 9) ?x795)))
 (let ((?x465 (* (- 23) k)))
 (let ((?x123 (* (- 18) c)))
 (let ((?x56 (* 2 n)))
 (let ((?x859 (* (- 1) m)))
 (let ((?x842 (* ?x393 ?x74)))
 (let ((?x866 (* (- 3) c)))
 (let ((?x744 (* 2 m)))
 (let ((?x752 (* 11 k)))
 (let ((?x738 (* 9 c)))
 (let ((?x835 (* 9 (* ?x393 ?x393 ?x74 ?x74 ?x71 ?x71))))
 (let ((?x804 (+ ?x835 ?x738 ?x752 ?x744 (* (- 3) (* (+ 6 m) (+ 6 m) ?x71 ?x71)))))
 (let (($x503 (not (= (* ?x804 (+ 13 ?x123 ?x465 ?x370 ?x454 ?x45 ?x80)) 0))))
 (let (($x145 (= (+ m (* (- 6) n)) 6)))
 (let (($x363 (not $x145)))
 (let (($x587 (= (+ (* 3 (* ?x393 ?x393)) (* (- 1) k) ?x859 (* 3 n)) (- 3))))
 (let (($x343 (not $x587)))
 (let (($x837 (or $x343 $x363 $x503 (not (= (+ ?x866 (* (- 4) k) ?x842 ?x859 ?x56) (- 2))) (not (= (+ ?x123 ?x465 ?x370 ?x454 ?x45 ?x80) (- 13))))))
 (let (($x413 (= (+ (* 3 (* n n)) (* (- 1) k) (* 3 n)) 0)))
 (let (($x579 (= (+ ?x123 (* (- 9) (* n c)) (* (- 5) k) ?x45 (* k k)) (- 4))))
 (and $x145 $x579 (= (+ ?x866 (* n k) (* (- 1) k) ?x56) 0) $x413 $x837)))))))))))))))))))))))))))) :qid k!38))
 ))
 (let ((?x313 (lambda ((c Int) (k Int) (m Int) (n Int) )(let ((?x264 (* (- 2) n)))
 (let ((?x262 (* 3 c)))
 (let ((?x914 (+ ?x262 (* 4 k) (* (- 1) (* (+ 1 n) (+ k m))) m ?x264)))
 (let ((?x224 (* (- 9) n)))
 (let ((?x437 (* 5 m)))
 (let ((?x37 (* 18 c)))
 (let ((?x854 (+ ?x37 (* 23 k) (* 9 (* (+ 1 n) (+ c k))) ?x437 ?x224 (* (- 1) (* (+ k m) (+ k m))))))
 (let ((?x74 (+ k m)))
 (let ((?x80 (* ?x74 ?x74)))
 (let ((?x45 (* 9 n)))
 (let ((?x454 (* (- 5) m)))
 (let ((?x71 (+ c k)))
 (let ((?x393 (+ 1 n)))
 (let ((?x795 (* ?x393 ?x71)))
 (let ((?x370 (* (- 9) ?x795)))
 (let ((?x465 (* (- 23) k)))
 (let ((?x123 (* (- 18) c)))
 (let ((?x744 (* 2 m)))
 (let ((?x752 (* 11 k)))
 (let ((?x738 (* 9 c)))
 (let ((?x835 (* 9 (* ?x393 ?x393 ?x74 ?x74 ?x71 ?x71))))
 (let ((?x804 (+ ?x835 ?x738 ?x752 ?x744 (* (- 3) (* (+ 6 m) (+ 6 m) ?x71 ?x71)))))
 (let (($x503 (not (= (* ?x804 (+ 13 ?x123 ?x465 ?x370 ?x454 ?x45 ?x80)) 0))))
 (let (($x145 (= (+ m (* (- 6) n)) 6)))
 (let (($x363 (not $x145)))
 (let ((?x61 (* 3 n)))
 (let ((?x859 (* (- 1) m)))
 (let ((?x888 (* (- 1) k)))
 (let (($x343 (not (= (+ (* 3 (* ?x393 ?x393)) ?x888 ?x859 ?x61) (- 3)))))
 (let (($x413 (= (+ (* 3 (* n n)) ?x888 ?x61) 0)))
 (let ((?x46 (* k k)))
 (let ((?x225 (* (- 1) ?x46)))
 (let ((?x41 (* 5 k)))
 (let (($x544 (and $x145 (= (+ ?x37 (* 9 (* n c)) ?x41 ?x224 ?x225) 4) (= (+ ?x262 (* (- 1) (* n k)) k ?x264) 0) $x413 (or $x343 $x363 $x503 (not (= ?x854 13)) (not (= ?x914 2))))))
 (let ((?x56 (* 2 n)))
 (let ((?x842 (* ?x393 ?x74)))
 (let ((?x866 (* (- 3) c)))
 (let (($x837 (or $x343 $x363 $x503 (not (= (+ ?x866 (* (- 4) k) ?x842 ?x859 ?x56) (- 2))) (not (= (+ ?x123 ?x465 ?x370 ?x454 ?x45 ?x80) (- 13))))))
 (let (($x579 (= (+ ?x123 (* (- 9) (* n c)) (* (- 5) k) ?x45 ?x46) (- 4))))
 (let (($x863 (and $x145 $x579 (= (+ ?x866 (* n k) ?x888 ?x56) 0) $x413 $x837)))
 (rewrite (= $x863 $x544)))))))))))))))))))))))))))))))))))))))))))
 ))
 (let (($x110 (exists ((c Int) (k Int) (m Int) (n Int) )(! (let ((?x102 (+ m 6)))
 (let ((?x71 (+ c k)))
 (let ((?x66 (+ n 1)))
 (let ((?x74 (+ k m)))
 (let ((?x101 (+ (* 9 ?x71 ?x71 ?x74 ?x74 ?x66 ?x66) (* 9 ?x71) (* 2 ?x74))))
 (let ((?x80 (* ?x74 ?x74)))
 (let ((?x78 (- (- (- 4 (* 18 ?x71)) (* 9 ?x71 ?x66)) (* 5 ?x74))))
 (let ((?x81 (+ ?x78 (* 9 ?x66) ?x80)))
 (let (($x90 (= (+ (- (+ (* (- 3) ?x71) (* ?x74 ?x66)) ?x74) (* 2 ?x66)) 0)))
 (let (($x108 (or (not (= (- (+ (- 6) m 6) (* 6 ?x66)) 0)) (not (= ?x81 0)) (not $x90) (not (= (+ (- (* 3 ?x66 ?x66) ?x74) (* 3 ?x66)) 0)) (not (= (* ?x81 (- ?x101 (* 3 ?x71 ?x71 ?x102 ?x102))) 0)))))
 (let (($x58 (= (+ (- (+ (* (- 3) c) (* k n)) k) (* 2 n)) 0)))
 (let ((?x46 (* k k)))
 (let ((?x45 (* 9 n)))
 (let ((?x41 (* 5 k)))
 (let ((?x47 (+ (- (- (- 4 (* 18 c)) (* 9 c n)) ?x41) ?x45 ?x46)))
 (and (= (- (+ (- 6) m) (* 6 n)) 0) (= ?x47 0) $x58 (= (+ (- (* 3 n n) k) (* 3 n)) 0) $x108)))))))))))))))) :qid k!38))
 ))
 (let ((?x782 (lambda ((c Int) (k Int) (m Int) (n Int) )(let ((?x74 (+ k m)))
 (let ((?x80 (* ?x74 ?x74)))
 (let ((?x45 (* 9 n)))
 (let ((?x454 (* (- 5) m)))
 (let ((?x71 (+ c k)))
 (let ((?x393 (+ 1 n)))
 (let ((?x795 (* ?x393 ?x71)))
 (let ((?x370 (* (- 9) ?x795)))
 (let ((?x465 (* (- 23) k)))
 (let ((?x123 (* (- 18) c)))
 (let ((?x56 (* 2 n)))
 (let ((?x859 (* (- 1) m)))
 (let ((?x842 (* ?x393 ?x74)))
 (let ((?x866 (* (- 3) c)))
 (let ((?x744 (* 2 m)))
 (let ((?x752 (* 11 k)))
 (let ((?x738 (* 9 c)))
 (let ((?x835 (* 9 (* ?x393 ?x393 ?x74 ?x74 ?x71 ?x71))))
 (let ((?x804 (+ ?x835 ?x738 ?x752 ?x744 (* (- 3) (* (+ 6 m) (+ 6 m) ?x71 ?x71)))))
 (let (($x503 (not (= (* ?x804 (+ 13 ?x123 ?x465 ?x370 ?x454 ?x45 ?x80)) 0))))
 (let (($x145 (= (+ m (* (- 6) n)) 6)))
 (let (($x363 (not $x145)))
 (let (($x587 (= (+ (* 3 (* ?x393 ?x393)) (* (- 1) k) ?x859 (* 3 n)) (- 3))))
 (let (($x343 (not $x587)))
 (let (($x837 (or $x343 $x363 $x503 (not (= (+ ?x866 (* (- 4) k) ?x842 ?x859 ?x56) (- 2))) (not (= (+ ?x123 ?x465 ?x370 ?x454 ?x45 ?x80) (- 13))))))
 (let (($x413 (= (+ (* 3 (* n n)) (* (- 1) k) (* 3 n)) 0)))
 (let (($x579 (= (+ ?x123 (* (- 9) (* n c)) (* (- 5) k) ?x45 (* k k)) (- 4))))
 (let (($x863 (and $x145 $x579 (= (+ ?x866 (* n k) (* (- 1) k) ?x56) 0) $x413 $x837)))
 (let ((?x101 (+ (* 9 ?x71 ?x71 ?x74 ?x74 (+ n 1) (+ n 1)) (* 9 ?x71) (* 2 ?x74))))
 (let ((?x78 (- (- (- 4 (* 18 ?x71)) (* 9 ?x71 (+ n 1))) (* 5 ?x74))))
 (let ((?x81 (+ ?x78 (* 9 (+ n 1)) ?x80)))
 (let ((?x105 (* ?x81 (- ?x101 (* 3 ?x71 ?x71 (+ m 6) (+ m 6))))))
 (let ((?x95 (+ (- (* 3 (+ n 1) (+ n 1)) ?x74) (* 3 (+ n 1)))))
 (let ((?x89 (+ (- (+ (* (- 3) ?x71) (* ?x74 (+ n 1))) ?x74) (* 2 (+ n 1)))))
 (let (($x70 (not (= (- (+ (- 6) m 6) (* 6 (+ n 1))) 0))))
 (let (($x108 (or $x70 (not (= ?x81 0)) (not (= ?x89 0)) (not (= ?x95 0)) (not (= ?x105 0)))))
 (let ((?x46 (* k k)))
 (let ((?x41 (* 5 k)))
 (let ((?x47 (+ (- (- (- 4 (* 18 c)) (* 9 c n)) ?x41) ?x45 ?x46)))
 (let (($x109 (and (= (- (+ (- 6) m) (* 6 n)) 0) (= ?x47 0) (= (+ (- (+ (* (- 3) c) (* k n)) k) ?x56) 0) (= (+ (- (* 3 n n) k) (* 3 n)) 0) $x108)))
 (rewrite (= $x109 $x863)))))))))))))))))))))))))))))))))))))))))))
 ))
 (let ((@x111 (asserted $x110)))
 (let ((@x129 (mp (mp @x111 (quant-intro (proof-bind ?x782) (= $x110 $x780)) $x780) (rewrite (= $x780 $x780)) $x780)))
 (let ((@x839 (mp (mp @x129 (quant-intro (proof-bind ?x313) (= $x780 $x891)) $x891) (quant-intro (proof-bind ?x504) (= $x891 $x346)) $x346)))
 (let ((@x840 (mp (mp~ @x839 (sk (~ $x346 $x470)) $x470) (rewrite (= $x470 $x759)) $x759)))
 (let ((@x130 (and-elim @x840 $x813)))
 (let ((@x137 (unit-resolution ((_ th-lemma arith triangle-eq) (or (not $x813) $x362)) @x130 $x362)))
 (let (($x378 (>= ?x337 0)))
 (let ((@x358 (unit-resolution ((_ th-lemma arith triangle-eq) (or (not $x813) $x378)) @x130 $x378)))
 (let (($x198 (<= ?x161 (- 4))))
 (let ((@x389 (and-elim @x840 $x310)))
 (let ((@x246 (unit-resolution ((_ th-lemma arith triangle-eq) (or (not $x310) $x198)) @x389 $x198)))
 (let (($x367 (>= ?x161 (- 4))))
 (let ((@x850 (unit-resolution ((_ th-lemma arith triangle-eq) (or (not $x310) $x367)) @x389 $x367)))
 (let (($x406 (<= ?x496 0)))
 (let ((@x843 (and-elim @x840 $x499)))
 (let ((@x501 (unit-resolution ((_ th-lemma arith triangle-eq) (or (not $x499) $x406)) @x843 $x406)))
 (let (($x415 (>= ?x496 0)))
 (let ((@x490 (unit-resolution ((_ th-lemma arith triangle-eq) (or (not $x499) $x415)) @x843 $x415)))
 (let (($x882 (<= ?x771 (- 6))))
 (let ((@x356 (and-elim @x840 $x772)))
 (let ((@x373 (unit-resolution ((_ th-lemma arith triangle-eq) (or $x853 $x882)) @x356 $x882)))
 (let (($x199 (>= ?x771 (- 6))))
 (let ((@x570 (unit-resolution ((_ th-lemma arith triangle-eq) (or $x853 $x199)) @x356 $x199)))
 (let ((@x2869 ((_ th-lemma arith) (hypothesis (not $x2788)) @x570 @x373 @x490 @x501 @x358 @x137 @x358 @x137 @x490 @x501 @x490 @x501 @x850 @x246 @x358 @x137 false)))
 (let ((@x2870 (lemma @x2869 $x2788)))
 (let (($x2772 (<= c!3 3)))
 (let ((@x2787 (hypothesis $x2772)))
 (let (($x2200 (<= c!3 2)))
 (let ((@x2217 (hypothesis $x2200)))
 (let (($x1850 (<= c!3 1)))
 (let ((@x2051 (hypothesis $x1850)))
 (let (($x1564 (<= c!3 0)))
 (let ((@x1543 (hypothesis $x1564)))
 (let (($x241 (>= c!3 0)))
 (let ((?x383 (+ ?x477 ?x324 ?x593 (* (- 3) k!2) (* n!0 m!1))))
 (let (($x861 (<= ?x383 (- 2))))
 (let (($x876 (not $x861)))
 (let (($x474 (>= ?x383 (- 2))))
 (let ((@x1075 ((_ th-lemma arith) (hypothesis (not $x474)) @x490 @x501 @x358 @x137 @x570 @x373 @x490 @x501 @x570 @x373 @x490 @x501 false)))
 (let ((@x1521 ((_ th-lemma arith) @x490 @x501 (lemma @x1075 $x474) (hypothesis $x861) @x358 @x137 @x490 @x501 @x570 @x373 false)))
 (let (($x1031 (>= ?x872 0)))
 (let ((@x1032 (hypothesis (not $x1031))))
 (let ((@x1036 ((_ th-lemma arith) @x570 @x1032 @x570 @x1032 @x570 @x373 @x490 @x501 @x490 @x501 @x358 @x137 @x490 @x501 @x850 @x246 @x358 @x137 false)))
 (let (($x410 (<= m!1 0)))
 (let (($x802 (not $x241)))
 (let ((@x927 (hypothesis $x802)))
 (let ((@x822 (hypothesis $x876)))
 (let (($x1378 (<= m!1 6)))
 (let (($x1209 (>= ?x371 (- 23))))
 (let (($x151 (not $x410)))
 (let ((@x202 (hypothesis $x151)))
 (let (($x177 (<= k!2 0)))
 (let ((@x563 (hypothesis $x177)))
 (let (($x564 (>= k!2 0)))
 (let (($x605 (not $x564)))
 (let ((@x327 (hypothesis $x605)))
 (let ((@x339 (lemma ((_ th-lemma arith) @x327 @x501 @x327 @x501 @x327 @x501 false) $x564)))
 (let (($x398 (>= ?x399 0)))
 (let ((@x774 ((_ th-lemma arith gcd-test 2 2 2 2 -2 -2 -1/3 -1/3 -1/3 1/3 1/3 -1/3 -1/3) @x339 @x563 @x339 @x563 @x358 @x137 (lemma ((_ th-lemma arith farkas 1) (hypothesis (not $x398)) false) $x398) @x339 @x563 @x850 @x246 @x339 @x563 false)))
 (let ((@x368 (lemma @x774 (not $x177))))
 (let ((@x1041 (lemma ((_ th-lemma arith gcd-test -1/3 -1/3 -1/3 -1/3) @x368 (hypothesis (<= k!2 1)) @x490 @x501 false) (not (<= k!2 1)))))
 (let (($x1234 (not $x1209)))
 (let ((@x1218 (hypothesis $x1234)))
 (let ((@x1208 ((_ th-lemma arith) @x1218 @x1041 @x202 @x137 @x570 @x822 @x822 @x137 @x1041 @x202 @x822 @x137 @x1041 @x202 @x1218 @x1041 @x202 @x137 false)))
 (let ((@x1376 (hypothesis (not $x1378))))
 (let (($x1457 (<= c!3 (- 1))))
 (let ((@x1455 ((_ th-lemma arith farkas 1 1 1 1 1 1 1 1) (hypothesis $x1209) @x373 @x1376 @x570 (unit-resolution ((_ th-lemma arith farkas 1 1) (or $x1457 $x241)) @x927 $x1457) @x1376 @x570 @x501 false)))
 (let ((@x1469 (unit-resolution (lemma @x1455 (or $x1378 $x1234 $x241)) (unit-resolution (lemma @x1208 (or $x1209 $x410 $x861)) @x202 @x822 $x1209) @x927 $x1378)))
 (let (($x1074 (>= n!0 0)))
 (let ((@x1403 (lemma ((_ th-lemma arith farkas -6 1 1) (hypothesis (not $x1074)) @x570 @x202 false) (or $x1074 $x410))))
 (let ((@x1493 ((_ th-lemma arith farkas 1 -1 2 1 1 1) @x822 @x137 @x1041 (unit-resolution @x1403 @x202 $x1074) @x1469 @x373 false)))
 (let ((@x1401 ((_ th-lemma arith farkas -1/6 -1/6 -1/6 -1/6 -1/6 -1/6 1) @x822 @x137 @x1041 (unit-resolution (lemma @x1493 (or $x410 $x861 $x241)) @x822 @x927 $x410) @x373 @x373 (lemma @x1036 $x1031) false)))
 (let ((@x1517 (unit-resolution (lemma @x1401 (or $x861 $x241)) (lemma @x1521 $x876) $x241)))
 (let ((@x1552 ((_ th-lemma arith) @x1517 @x1543 @x490 @x501 @x1517 @x1543 @x850 @x246 @x1517 @x1543 @x850 @x246 @x1517 @x1543 @x850 @x246 @x1517 @x1543 @x490 @x501 @x850 @x246 @x490 @x501 @x490 @x501 @x850 @x246 @x358 @x137 @x1517 @x1543 false)))
 (let ((@x1526 (lemma @x1552 (not $x1564))))
 (let ((@x2056 ((_ th-lemma arith) @x490 @x501 @x1526 @x2051 @x1526 @x2051 @x1526 @x2051 @x1526 @x2051 @x1526 @x2051 @x490 @x501 @x1526 @x2051 @x1526 @x2051 @x1526 @x2051 @x358 @x137 @x1526 @x2051 @x850 @x246 @x490 @x501 @x490 @x501 @x850 @x246 @x1526 @x2051 false)))
 (let ((@x2062 (lemma @x2056 (not $x1850))))
 (let ((@x2220 ((_ th-lemma arith) @x2062 @x2217 @x2062 @x2217 @x2062 @x2217 @x2062 @x2217 @x2062 @x2217 @x2062 @x2217 @x2062 @x2217 @x2062 @x2217 @x2062 @x2217 @x2062 @x2217 @x2062 @x2217 @x2062 @x2217 @x2062 @x2217 @x570 @x373 @x570 @x373 @x2062 @x2217 @x2062 @x2217 @x2062 @x2217 @x2062 @x2217 @x2062 @x2217 @x2062 @x2217 @x2062 @x2217 @x2062 @x2217 @x2062 @x2217 @x2062 @x2217 @x2062 @x2217 @x2062 @x2217 @x2062 @x2217 @x2062 @x2217 @x850 @x246 @x2062 @x2217 @x2062 @x2217 @x2062 @x2217 @x2062 @x2217 @x2062 @x2217 @x570 @x373 @x2062 @x2217 @x2062 @x2217 @x2062 @x2217 @x2062 @x2217 @x2062 @x2217 @x2062 @x2217 @x2062 @x2217 @x2062 @x2217 @x2062 @x2217 @x2062 @x2217 @x2062 @x2217 @x2062 @x2217 @x2062 @x2217 @x2062 @x2217 @x850 @x246 @x2062 @x2217 @x2062 @x2217 @x570 @x373 @x2062 @x2217 @x2062 @x2217 @x2062 @x2217 @x2062 @x2217 @x2062 @x2217 @x850 @x246 @x2062 @x2217 @x850 @x246 @x850 @x246 @x2062 @x2217 @x2062 @x2217 @x2062 @x2217 @x490 @x501 @x570 @x373 @x2062 @x2217 @x2062 @x2217 @x2062 @x2217 @x570 @x373 @x2062 @x2217 @x2062 @x2217 @x2062 @x2217 @x570 @x373 @x850 @x246 @x358 @x137 @x2062 @x2217 false)))
 (let ((@x2234 (lemma @x2220 (not $x2200))))
 (let (($x2641 (>= ?x338 142)))
 (let (($x2658 (<= m!1 30)))
 (let (($x2744 (not $x2658)))
 (let ((@x2735 (hypothesis (not $x2641))))
 (let (($x1853 (>= ?x872 5)))
 (let ((@x2552 (hypothesis (not $x1853))))
 (let (($x2421 (>= ?x872 4)))
 (let ((@x2212 ((_ th-lemma arith) @x2234 @x570 (hypothesis (not $x2421)) @x570 @x373 @x490 @x501 @x570 @x373 @x490 @x501 @x358 @x137 @x490 @x501 @x490 @x501 @x490 @x501 @x570 @x373 @x490 @x501 @x570 @x373 @x850 @x246 false)))
 (let ((@x2417 (lemma @x2212 $x2421)))
 (let (($x2509 (<= ?x819 63)))
 (let ((@x2514 (hypothesis $x2509)))
 (let (($x1688 (>= (+ n!0 ?x411) 13)))
 (let (($x2168 (<= k!2 36)))
 (let ((@x2494 (hypothesis $x2168)))
 (let ((@x2310 ((_ th-lemma arith gcd-test 1/9 1/9 1/9 1/9 -2/3 -2/3 -1/9 -1/9 -1/9 -1/9 -1/9 -1/9 -1/9 -1/9 -1/9 -1/9 -1/9 -1/9 2/3 2/3 2/3 2/3 2/3 2/3) @x850 @x246 @x490 @x501 @x358 @x137 @x2417 @x501 @x2494 @x2417 @x501 @x2494 @x2417 @x501 @x2494 @x2417 @x501 @x2494 @x2417 @x501 @x2494 @x2417 @x501 @x2494 false)))
 (let ((@x1672 ((_ th-lemma arith farkas 1 -3 1) @x490 (hypothesis (not $x1688)) (lemma @x2310 (not $x2168)) false)))
 (let ((@x2502 (lemma @x1672 $x1688)))
 (let (($x2045 (>= ?x338 (- 8))))
 (let (($x2091 (not (<= n!0 (- 1)))))
 (let (($x776 (>= ?x324 0)))
 (let (($x1404 (>= ?x411 0)))
 (let (($x1380 (not $x1404)))
 (let ((@x1483 (hypothesis $x1380)))
 (let ((@x1504 (lemma ((_ th-lemma arith farkas 1 1 1 1) @x1483 @x1483 @x1041 @x490 false) $x1404)))
 (let ((@x1379 (unit-resolution ((_ th-lemma arith assign-bounds 1 3 1/3 -2 2/3) (or $x776 (not $x378) $x802 $x605 $x1380 (not $x406))) @x501 @x339 @x1517 @x358 @x1504 $x776)))
 (let ((@x739 (lemma ((_ th-lemma arith farkas -1/6 -1/6 1 1) (hypothesis $x410) @x373 (hypothesis $x776) @x368 false) (or $x151 (not $x776)))))
 (let ((@x1382 (unit-resolution @x739 @x1379 $x151)))
 (let ((@x2115 (unit-resolution ((_ th-lemma arith farkas 1 1) (or $x2091 (not $x1074))) (unit-resolution @x1403 @x1382 $x1074) $x2091)))
 (let ((@x2512 ((_ th-lemma arith farkas -1/6 -1/6 -1/6 3/2 1 1 1 1 1 1) @x373 @x2514 @x501 @x2502 @x2234 (lemma ((_ th-lemma arith farkas 1 1 1) (hypothesis (not $x2045)) @x2115 @x2062 false) $x2045) @x2502 @x373 @x2514 @x501 false)))
 (let ((@x2554 (lemma ((_ th-lemma arith farkas 1/3 1/3 1/3 -3 1 1) @x570 (lemma @x2512 (not $x2509)) @x490 @x2552 @x2417 @x2552 false) $x1853)))
 (let (($x2556 (>= ?x338 127)))
 (let ((@x2594 (hypothesis (not $x2556))))
 (let (($x2590 (>= (+ (* 10 n!0) (* (- 8) ?x338) ?x399 ?x495 (* (- 15) c!3) ?x158) 189)))
 (let (($x2230 (>= ?x411 2)))
 (let (($x2087 (>= ?x411 1)))
 (let ((@x2043 ((_ th-lemma arith) @x1504 (hypothesis (not $x2087)) @x490 @x501 @x850 @x246 @x490 @x501 @x358 @x137 @x490 @x501 false)))
 (let ((@x2313 ((_ th-lemma arith) (lemma @x2043 $x2087) (hypothesis (not $x2230)) @x570 @x373 @x490 @x501 @x490 @x501 @x850 @x246 @x358 @x137 @x490 @x501 false)))
 (let ((@x2597 ((_ th-lemma arith) ((_ th-lemma arith gomory-cut 3/5 1 1 1/5 1/5 -3/5) (lemma @x2313 $x2230) @x490 @x850 @x2502 @x501 @x2594 $x2590) @x2234 @x2594 @x570 @x373 @x850 @x246 @x490 @x501 @x358 @x137 @x850 @x246 @x850 @x246 @x490 @x501 @x850 @x246 @x850 @x246 @x490 @x501 false)))
 (let ((@x2736 ((_ th-lemma arith farkas 1 3 3 3 11/6 11/6 9 3 1 1 1) @x137 (lemma @x2597 $x2556) @x2735 @x2554 @x570 @x1382 @x2554 @x501 @x2554 (hypothesis $x2658) @x373 false)))
 (let ((@x2766 (unit-resolution (lemma @x2736 (or $x2744 $x2641)) @x2735 $x2744)))
 (let ((@x2785 ((_ th-lemma arith gomory-cut 1/2 1/6 1/6 1 1/2 1/2 1/2 1/2) @x490 @x2766 @x570 @x358 @x2766 @x570 @x2502 @x501 (>= (+ ?x493 ?x324 ?x411 (* (- 2) c!3) ?x505) 69))))
 (let ((@x2784 ((_ th-lemma arith) @x2785 @x2735 @x2766 @x570 @x490 @x501 @x358 @x137 @x570 @x373 @x850 @x246 @x570 @x373 @x490 @x501 @x490 @x501 @x850 @x246 @x850 @x246 @x850 @x246 @x358 @x137 @x570 @x373 @x358 @x137 @x850 @x246 @x570 @x373 @x490 @x501 @x358 @x137 @x358 @x137 @x490 @x501 @x358 @x137 @x570 @x373 @x570 @x373 @x490 @x501 false)))
 (let ((@x2764 (lemma @x2784 $x2641)))
 (let ((@x2819 ((_ th-lemma arith) @x137 @x2554 @x2502 @x501 @x2787 @x2764 @x2234 @x2764 @x2234 @x2787 @x2787 @x2764 @x2234 @x2787 @x2787 @x2234 @x2787 @x2234 @x2787 @x358 @x137 false)))
 (let ((@x2838 (lemma @x2819 (not $x2772))))
 ((_ th-lemma arith) @x2838 @x2870 @x2838 @x2870 @x2838 @x2870 @x2838 @x2870 @x2838 @x2870 @x2838 @x2870 @x2838 @x2870 @x2838 @x2870 @x2838 @x2870 @x2838 @x2870 @x2838 @x2870 @x2838 @x2870 @x2838 @x2870 @x850 @x246 @x570 @x373 @x2838 @x2870 @x2838 @x2870 @x2838 @x2870 @x2838 @x2870 @x2838 @x2870 @x2838 @x2870 @x358 @x137 @x570 @x373 @x2838 @x2870 @x2838 @x2870 @x2838 @x2870 @x2838 @x2870 @x2838 @x2870 @x850 @x246 @x2838 @x2870 @x2838 @x2870 @x2838 @x2870 @x2838 @x2870 @x2838 @x2870 @x2838 @x2870 @x2838 @x2870 @x2838 @x2870 @x570 @x373 @x850 @x246 @x2838 @x2870 @x2838 @x2870 @x2838 @x2870 @x2838 @x2870 @x2838 @x2870 @x2838 @x2870 @x2838 @x2870 @x2838 @x2870 @x2838 @x2870 @x490 @x501 @x570 @x373 @x2838 @x2870 @x2838 @x2870 @x2838 @x2870 @x2838 @x2870 @x2838 @x2870 @x2838 @x2870 @x2838 @x2870 @x2838 @x2870 @x2838 @x2870 @x570 @x373 @x850 @x246 @x2838 @x2870 @x490 @x501 @x2838 @x2870 @x2838 @x2870 @x2838 @x2870 @x570 @x373 @x850 @x246 @x2838 @x2870 false))))))))))))))))))))))))))))))))))))))))))))))))))))))))))))))))))))))))))))))))))))))))))))))))))))))))))))))))))))))))))))))))))))))))))))))))))))))))))))))))))))))))))))))))))))))))))))))))))))))))))

(:added-eqs                 105
 :arith-assert-diseq        59
 :arith-assert-lower        1537
 :arith-assert-upper        547
 :arith-bound-prop          12
 :arith-branch-var          73
 :arith-conflicts           73
 :arith-eq-adapter          12
 :arith-fixed-eqs           130
 :arith-gcd-tests           689
 :arith-gomory-cuts         45
 :arith-grobner             67
 :arith-ineq-splits         73
 :arith-max-min             7435
 :arith-nonlinear-bounds    483
 :arith-nonlinear-horner    789
 :arith-num-rows            20
 :arith-offset-eqs          7
 :arith-patches             160
 :arith-patches_succ        15
 :arith-pivots              1736
 :arith-pseudo-nonlinear    139
 :arith-row-summations      10250
 :arith-tableau-max-columns 75
 :arith-tableau-max-rows    20
 :conflicts                 79
 :decisions                 446
 :del-clause                118
 :final-checks              331
 :max-memory                4.34
 :memory                    3.50
 :minimized-lits            11
 :mk-bool-var               370
 :mk-clause                 137
 :num-allocs                7219005
 :num-checks                1
 :propagations              373
 :rlimit-count              562054
 :time                      0.12
 :total-time                0.13)
